156 300 23 84 52 43 73 77 54 67 55 33 31 6 77 37 28 60 18 49 4 39 47 17 29 37 83 56 31 28 99 93 35 21 76 86 16 49 15 69 67 21 53 49 27 29 85 54 40 55 2 95 93 100 12 74 36 46 81 18 73 79 10 7 100 38 44 67 86 58 35 4 31 88 52 57 68 36 10 8 90 63 54 35 62 65 8 98 62 88 67 34 18 29 92 69 66 36 35 3 45 70 6 75 9 57 83 76 44 92 35 86 6 89 20 68 5 79 17 67 18 35 52 35 63 44 4 80 31 38 82 27 59 87 54 19 95 36 95 39 80 81 24 85 21 95 4 78 25 20 44 42 55 47 28 17 90 31 